 &CONTROL
    calculation = 'scf',        ! type of calculation
    outdir      = './'
    prefix      = 'polyene',   ! name of calculation
 /

 &SYSTEM
    ibrav       = 0,            ! manually defined lattice
    nat         = 4,            ! # of atoms in the unit cell
    ntyp        = 2,            ! # of types of atoms in the unit cell
    ecutwfc     = 40.0,         ! kinetic energy cutoff for psi
    ecutrho     = 160.0,        ! kinetic energy cutoff for rho
    occupations = 'smearing',   ! smear out populations
    smearing    = 'gaussian',   ! smearing type
    degauss     = 0.005,         ! smearing width
 /
 
 &ELECTRONS
    conv_thr = 1.0d-7           ! convergence threshold
 /

ATOMIC_SPECIES                  ! pseudopotentials
 C  12.011  C.pbe-n-kjpaw_psl.0.1.UPF
 H  1.0079  H.pbe-kjpaw.UPF

CELL_PARAMETERS angstrom
  2.46 0.00 0.00
  0.00 8.00 0.00
  0.00 0.00 8.00

ATOMIC_POSITIONS angstrom
C            -0.0892667335        5.0044829983        0.0000000000
C             1.1188731877        5.6554736844        0.0000000000
H            -0.0886398385        3.9081833686        0.0000000000
H             1.1190333843        6.7518599486        0.0000000000
   
K_POINTS crystal_b
2
0.0 0.0 0.0 100
0.5 0.0 0.0 0 

