&bands
    prefix = 'polyene',
    outdir = './',
    filband = 'polyene.bands.dat',
 /
K_POINTS crystal_b
2
0.0 0.0 0.0 20 ! Gamma
0.5 0.0 0.0 20 ! X
